language ESSENCE' 1.0
$ loaded file: carseqdata/csplib-instance-45
letting numcars=200
letting numclasses=25
letting numoptions=5
letting optMax=[1, 2, 1, 2, 1]
letting windowSize=[2, 3, 3, 5, 5]
letting numberPerClass=[1, 25, 6, 5, 23, 11, 5, 3, 5, 7, 2, 6, 1, 3, 5, 43, 9, 14, 1, 1, 5, 2, 14, 1, 2]
letting optionsRequired=[[1, 1, 0, 0, 1], [0, 0, 0, 1, 0], [0, 1, 0, 0, 1], [1, 0, 0, 0, 1], [1, 0, 0, 0, 0], [1, 1, 0, 0, 0], [0, 0, 1, 1, 0], [0, 0, 0, 1, 1], [1, 0, 0, 1, 0], [0, 1, 1, 0, 0], [0, 0, 1, 1, 1], [1, 1, 1, 0, 0], [0, 1, 1, 1, 1], [0, 1, 1, 1, 0], [1, 0, 1, 1, 0], [0, 1, 0, 0, 0], [0, 0, 0, 0, 1], [0, 1, 0, 1, 0], [1, 0, 1, 0, 0], [1, 1, 1, 0, 1], [1, 1, 0, 1, 0], [0, 1, 0, 1, 1], [0, 0, 1, 0, 0], [1, 1, 1, 0, 0], [0, 0, 1, 0, 1]]
